Practica4/tsp_escenarios_ejecucion/a5/a5.tsp
NAME : a5
TYPE: TSP
COMMENT : drilling problem (Ludwig)
DIMENSION : 5
EDGE_WEIGHT_TYPE : EUC_2D
DISPLAY_DATA_TYPE: COORD_DISPLAY
NODE_COORD_SECTION
  1 288 149
  2 288 129
  3 270 133
  4 256 141
  5 256 157
EOF
