Practica4/tsp_escenarios_ejecucion/a5/a5.tour
NAME : ./TSPLIB/a280.tsp.optbc.tour
TYPE : TOUR
DIMENSION : 5
TOUR_SECTION
1
2
5
4
3
-1